objective value:                                 1182
x1                                                  1 	(obj:100)
x8                                                  1 	(obj:100)
x15                                                 1 	(obj:100)
x16                                                 1 	(obj:100)
x26                                                 1 	(obj:100)
x29                                                 1 	(obj:100)
x56                                                 1 	(obj:100)
x59                                                 1 	(obj:100)
x61                                                 1 	(obj:100)
x63                                                 1 	(obj:100)
x64                                                 1 	(obj:100)
x66                                                 1 	(obj:100)
y1_61                                               1 	(obj:-1)
y1_29                                               1 	(obj:-1)
y8_59                                               1 	(obj:-1)
y16_26                                              1 	(obj:-1)
y15_66                                              1 	(obj:-1)
y56_66                                              1 	(obj:-1)
y26_29                                              1 	(obj:-1)
y15_56                                              1 	(obj:-1)
y59_61                                              1 	(obj:-1)
y16_61                                              1 	(obj:-1)
y8_66                                               1 	(obj:-1)
y1_26                                               1 	(obj:-1)
y26_64                                              1 	(obj:-1)
y8_61                                               1 	(obj:-1)
y15_59                                              1 	(obj:-1)
y8_56                                               1 	(obj:-1)
y8_15                                               1 	(obj:-1)
y29_64                                              1 	(obj:-1)
